(set-logic ALL)
(declare-const lines String)
(declare-const parameters String)
(assert (< 0 (str.len lines)))
(assert (not (str.contains (str.at lines 0) "Base frequencies")))
(assert (not (str.contains (str.at lines 0) "base frequency parameters")))
(assert (not (str.contains (str.at lines 0) "Base frequencies")))
(assert (not (str.contains (str.at lines 0) "freq: ")))
(assert (not (str.contains (str.at lines 0) "(frequency parameters for branches)")))
(assert (< 1 (str.len lines)))
(assert (not (str.contains (str.at lines 1) "Base frequencies")))
(assert (not (str.contains (str.at lines 1) "base frequency parameters")))
(assert (not (str.contains (str.at lines 1) "Base frequencies")))
(assert (not (str.contains (str.at lines 1) "freq: ")))
(assert (not (str.contains (str.at lines 1) "(frequency parameters for branches)")))
(assert (< 2 (str.len lines)))
(assert (not (str.contains (str.at lines 2) "Base frequencies")))
(assert (not (str.contains (str.at lines 2) "base frequency parameters")))
(assert (not (str.contains (str.at lines 2) "Base frequencies")))
(assert (not (str.contains (str.at lines 2) "freq: ")))
(assert (not (str.contains (str.at lines 2) "(frequency parameters for branches)")))
(assert (< 3 (str.len lines)))
(assert (not (str.contains (str.at lines 3) "Base frequencies")))
(assert (not (str.contains (str.at lines 3) "base frequency parameters")))
(assert (not (str.contains (str.at lines 3) "Base frequencies")))
(assert (not (str.contains (str.at lines 3) "freq: ")))
(assert (not (str.contains (str.at lines 3) "(frequency parameters for branches)")))
(assert (< 4 (str.len lines)))
(assert (not (str.contains (str.at lines 4) "Base frequencies")))
(assert (not (str.contains (str.at lines 4) "base frequency parameters")))
(assert (not (str.contains (str.at lines 4) "Base frequencies")))
(assert (not (str.contains (str.at lines 4) "freq: ")))
(assert (not (str.contains (str.at lines 4) "(frequency parameters for branches)")))
(assert (< 5 (str.len lines)))
(assert (not (str.contains (str.at lines 5) "Base frequencies")))
(assert (not (str.contains (str.at lines 5) "base frequency parameters")))
(assert (not (str.contains (str.at lines 5) "Base frequencies")))
(assert (not (str.contains (str.at lines 5) "freq: ")))
(assert (not (str.contains (str.at lines 5) "(frequency parameters for branches)")))
(assert (< 6 (str.len lines)))
(assert (not (str.contains (str.at lines 6) "Base frequencies")))
(assert (not (str.contains (str.at lines 6) "base frequency parameters")))
(assert (not (str.contains (str.at lines 6) "Base frequencies")))
(assert (not (str.contains (str.at lines 6) "freq: ")))
(assert (not (str.contains (str.at lines 6) "(frequency parameters for branches)")))
(assert (< 7 (str.len lines)))
(assert (not (str.contains (str.at lines 7) "Base frequencies")))
(assert (not (str.contains (str.at lines 7) "base frequency parameters")))
(assert (not (str.contains (str.at lines 7) "Base frequencies")))
(assert (not (str.contains (str.at lines 7) "freq: ")))
(assert (not (str.contains (str.at lines 7) "(frequency parameters for branches)")))
(assert (< 8 (str.len lines)))
(assert (not (str.contains (str.at lines 8) "Base frequencies")))
(assert (not (str.contains (str.at lines 8) "base frequency parameters")))
(assert (not (str.contains (str.at lines 8) "Base frequencies")))
(assert (not (str.contains (str.at lines 8) "freq: ")))
(assert (not (str.contains (str.at lines 8) "(frequency parameters for branches)")))
(assert (< 9 (str.len lines)))
(assert (not (str.contains (str.at lines 9) "Base frequencies")))
(assert (not (str.contains (str.at lines 9) "base frequency parameters")))
(assert (not (str.contains (str.at lines 9) "Base frequencies")))
(assert (not (str.contains (str.at lines 9) "freq: ")))
(assert (not (str.contains (str.at lines 9) "(frequency parameters for branches)")))
(assert (< 10 (str.len lines)))
(assert (not (str.contains (str.at lines 10) "Base frequencies")))
(assert (not (str.contains (str.at lines 10) "base frequency parameters")))
(assert (not (str.contains (str.at lines 10) "Base frequencies")))
(assert (not (str.contains (str.at lines 10) "freq: ")))
(assert (not (str.contains (str.at lines 10) "(frequency parameters for branches)")))
(assert (< 11 (str.len lines)))
(check-sat)
(get-value (lines))
(get-value (parameters))
